(set-logic QF_LIA)
(set-info :ran/ran2.smt2)
(set-info :smt-lib-version 2.0)
(declare-fun x1 () Int)
(declare-fun x2 () Int)
(declare-fun x3 () Int)
(declare-fun x4 () Int)
(assert (<= (+ (* 8 x1) (* 2 x2) (* 5 x3) (* (- 10) x4) ) 148))
(assert (<= (+ (* (- 1) x1) (* (- 9) x2) (* (- 3) x3) (* 3 x4) ) 137))
(assert (<= (+ (* 0 x1) (* 4 x2) (* (- 4) x3) (* 8 x4) ) 46))
(assert (<= (+ (* (- 6) x1) (* 5 x2) (* (- 5) x3) (* (- 5) x4) ) 165))
(assert (<= (+ (* (- 8) x1) (* 4 x2) (* (- 7) x3) (* 5 x4) ) (- 12)))
(assert (<= (+ (* (- 7) x1) (* (- 1) x2) (* (- 7) x3) (* 8 x4) ) 157))
(assert (<= (+ (* 4 x1) (* 4 x2) (* 0 x3) (* (- 2) x4) ) (- 106)))
(assert (<= (+ (* 10 x1) (* 6 x2) (* 6 x3) (* (- 4) x4) ) (- 14)))
(assert (<= (+ (* 1 x1) (* 0 x2) (* 0 x3) (* 0 x4) ) 177))
(assert (<= (+ (* (- 1) x1) (* 0 x2) (* 0 x3) (* 0 x4) ) 177))
(assert (<= (+ (* 0 x1) (* 1 x2) (* 0 x3) (* 0 x4) ) 177))
(assert (<= (+ (* 0 x1) (* (- 1) x2) (* 0 x3) (* 0 x4) ) 177))
(assert (<= (+ (* 0 x1) (* 0 x2) (* 1 x3) (* 0 x4) ) 177))
(assert (<= (+ (* 0 x1) (* 0 x2) (* (- 1) x3) (* 0 x4) ) 177))
(assert (<= (+ (* 0 x1) (* 0 x2) (* 0 x3) (* 1 x4) ) 177))
(assert (<= (+ (* 0 x1) (* 0 x2) (* 0 x3) (* (- 1) x4) ) 177))
